column=10;
row=10;
Board=[|6,0,0,9,7,0,0,2,0,1|8,7,0,0,0,1,0,3,2,10|0,0,0,2,3,0,1,0,0,4|0,0,0,0,0,0,5,0,6,3|0,2,9,0,0,0,0,0,0,0|0,0,0,1,0,0,4,0,10,2|9,4,0,0,0,8,0,0,0,0|1,0,0,0,4,0,0,5,0,8|0,0,0,4,0,10,0,6,0,0|2,10,0,0,0,3,6,8,4,0|];
